牛客/2019牛客暑期多校训练营/数据/9_D_Knapsack Cryptosystem/8.in
36 585693808613422
30833007690205 61666015380410 51800236271128 27135788497923 19741350113359 33323932204513 11150408945616 27263083130258 63205234481414 38883503026034 7735263084200 9390093304555 9086878369760 60225716638906 37164357787253 26892548753270 42841208369141 64053233752588 31129210285629 1406244318826 9187231154913 10644316731819 58270615390083 29587260429617 10504274967802 47906452233658 52865290417687 56765088195216 20754717760299 2679652874313 2934188235176 50259196300130 12172894720101 46924569314785 5262406360782 17882948622423
